hierarquia/trunk/models/data_N6k-sample.mod
###Dados###

data;

param N     := 6;
param Fis   := 0;
param H	    := 4;
param Cap   := 1;
param M     := 4;
param Wc    := 2;
#param Gl    := 2;
#param L     := 1;

param ZeroC  := 1;

param D : 	1 2 3 4 5 6:=
	  1	0.0 0.90 0.62 0.51 0.28 0.52
	  2	0.5 0.00 0.39 0.92 0.26 0.15
	  3	0.4 0.31 0.00 0.34 0.21 0.14
	  4	0.2 0.48 0.34 0.00 0.99 0.36
	  5	0.1 0.44 0.14 0.84 0.00 0.99
	  6	0.4 0.19 0.99 0.75 0.18 0.00
;

param Hd : 	1  2  3  4  5  6 :=
	  1	0  1  0  0  0  1
	  2	1  0  1  0  1  1
	  3	0  1  0  1  1  0
	  4	0  0  1  0  1  0
	  5	0  1  1  1  0  1
	  6	1  1  0  0  1  0
;

end;
